Minimize
  1.414213562373095 X_0,1,0,0 + 10000 BAUX_0,1,0,0 + 2 X_0,2,0,0
   + 10000 BAUX_0,2,0,0 + 2.23606797749979 X_0,3,0,0 + 10000 BAUX_0,3,0,0
   + 2.23606797749979 X_0,4,0,0 + 10000 BAUX_0,4,0,0
   + 3.16227766016838 X_2,1,2,0 + 10000 BAUX_2,1,2,0
   + 3.605551275463989 X_2,3,2,0 + 10000 BAUX_2,3,2,0
   + 2.23606797749979 X_2,4,2,0 + 10000 BAUX_2,4,2,0 + 2 X_2,0,2,0
   + 10000 BAUX_2,0,2,0 + X_1,3,8,0 + 10000 BAUX_1,3,8,0
   + 2.23606797749979 X_1,4,8,0 + 10000 BAUX_1,4,8,0
   + 1.414213562373095 X_1,0,8,0 + 10000 BAUX_1,0,8,0
   + 3.16227766016838 X_2,1,3,0 + 10000 BAUX_2,1,3,0
   + 3.605551275463989 X_2,3,3,0 + 10000 BAUX_2,3,3,0
   + 2.23606797749979 X_2,4,3,0 + 10000 BAUX_2,4,3,0 + 2 X_2,0,3,0
   + 10000 BAUX_2,0,3,0 + X_3,1,11,0 + 10000 BAUX_3,1,11,0 + 2 X_3,4,11,0
   + 10000 BAUX_3,4,11,0 + 2.23606797749979 X_3,0,11,0
   + 10000 BAUX_3,0,11,0 + 2.23606797749979 X_1,4,9,0 + 10000 BAUX_1,4,9,0
   + 1.414213562373095 X_1,0,9,0 + 10000 BAUX_1,0,9,0
   + 3.16227766016838 X_2,1,4,0 + 10000 BAUX_2,1,4,0
   + 3.605551275463989 X_2,3,4,0 + 10000 BAUX_2,3,4,0
   + 2.23606797749979 X_2,4,4,0 + 10000 BAUX_2,4,4,0 + 2 X_2,0,4,0
   + 10000 BAUX_2,0,4,0 + X_1,3,5,0 + 10000 BAUX_1,3,5,0
   + 2.23606797749979 X_1,4,5,0 + 10000 BAUX_1,4,5,0
   + 1.414213562373095 X_1,0,5,0 + 10000 BAUX_1,0,5,0
   + 2.23606797749979 X_1,4,14,0 + 10000 BAUX_1,4,14,0
   + 1.414213562373095 X_1,0,14,0 + 10000 BAUX_1,0,14,0
   + 2.23606797749979 X_1,4,10,0 + 10000 BAUX_1,4,10,0
   + 1.414213562373095 X_1,0,10,0 + 10000 BAUX_1,0,10,0
   + 3.16227766016838 X_2,1,5,0 + 10000 BAUX_2,1,5,0
   + 3.605551275463989 X_2,3,5,0 + 10000 BAUX_2,3,5,0
   + 2.23606797749979 X_2,4,5,0 + 10000 BAUX_2,4,5,0 + 2 X_2,0,5,0
   + 10000 BAUX_2,0,5,0 + X_1,3,6,0 + 10000 BAUX_1,3,6,0
   + 2.23606797749979 X_1,4,6,0 + 10000 BAUX_1,4,6,0
   + 1.414213562373095 X_1,0,6,0 + 10000 BAUX_1,0,6,0
   + 2.23606797749979 X_4,0,19,0 + 10000 BAUX_4,0,19,0
   + 2.23606797749979 X_1,4,15,0 + 10000 BAUX_1,4,15,0
   + 1.414213562373095 X_1,0,15,0 + 10000 BAUX_1,0,15,0
   + 2.23606797749979 X_1,4,11,0 + 10000 BAUX_1,4,11,0
   + 1.414213562373095 X_1,0,11,0 + 10000 BAUX_1,0,11,0 + X_1,3,7,0
   + 10000 BAUX_1,3,7,0 + 2.23606797749979 X_1,4,7,0 + 10000 BAUX_1,4,7,0
   + 1.414213562373095 X_1,0,7,0 + 10000 BAUX_1,0,7,0
   + 2.23606797749979 X_4,0,20,0 + 10000 BAUX_4,0,20,0
   + 1.414213562373095 X_1,0,16,0 + 10000 BAUX_1,0,16,0
   + 2.23606797749979 X_4,1,17,0 + 10000 BAUX_4,1,17,0
   + 2.23606797749979 X_4,0,17,0 + 10000 BAUX_4,0,17,0
   + 2.23606797749979 X_1,4,12,0 + 10000 BAUX_1,4,12,0
   + 1.414213562373095 X_1,0,12,0 + 10000 BAUX_1,0,12,0
   + 1.414213562373095 X_1,0,17,0 + 10000 BAUX_1,0,17,0
   + 1.414213562373095 X_1,0,22,0 + 10000 BAUX_1,0,22,0
   + 2.23606797749979 X_4,1,18,0 + 10000 BAUX_4,1,18,0
   + 2.23606797749979 X_4,0,18,0 + 10000 BAUX_4,0,18,0
   + 2.23606797749979 X_1,4,13,0 + 10000 BAUX_1,4,13,0
   + 1.414213562373095 X_1,0,13,0 + 10000 BAUX_1,0,13,0
   + 1.414213562373095 X_1,0,18,0 + 10000 BAUX_1,0,18,0
   + 1.414213562373095 X_1,0,23,0 + 10000 BAUX_1,0,23,0
   + 1.414213562373095 X_1,0,19,0 + 10000 BAUX_1,0,19,0
   + 1.414213562373095 X_1,0,20,0 + 10000 BAUX_1,0,20,0
   + 1.414213562373095 X_1,0,21,0 + 10000 BAUX_1,0,21,0 + 10000 FAUX_0
Subject To
 COVER_1: Y_1,5 + Y_1,6 + Y_1,7 + Y_1,8 + Y_1,9 + Y_1,10 + Y_1,11 + Y_1,12
   + Y_1,13 + Y_1,14 + Y_1,15 + Y_1,16 + Y_1,17 + Y_1,18 + Y_1,19 + Y_1,20
   + Y_1,21 + Y_1,22 + Y_1,23 = 1
 COVER_2: Y_2,2 + Y_2,3 + Y_2,4 + Y_2,5 = 1
 COVER_3: Y_3,11 = 1
 COVER_4: Y_4,17 + Y_4,18 + Y_4,19 + Y_4,20 = 1
 SYNCH_1,5,0: - Y_1,5 + X_1,3,5,0 + X_1,4,5,0 + X_1,0,5,0 = 0
 SYNCH_1,6,0: - Y_1,6 + X_1,3,6,0 + X_1,4,6,0 + X_1,0,6,0 = 0
 SYNCH_1,7,0: - Y_1,7 + X_1,3,7,0 + X_1,4,7,0 + X_1,0,7,0 = 0
 SYNCH_1,8,0: - Y_1,8 + X_1,3,8,0 + X_1,4,8,0 + X_1,0,8,0 = 0
 SYNCH_1,9,0: - Y_1,9 + X_1,4,9,0 + X_1,0,9,0 = 0
 SYNCH_1,10,0: - Y_1,10 + X_1,4,10,0 + X_1,0,10,0 = 0
 SYNCH_1,11,0: - Y_1,11 + X_1,4,11,0 + X_1,0,11,0 = 0
 SYNCH_1,12,0: - Y_1,12 + X_1,4,12,0 + X_1,0,12,0 = 0
 SYNCH_1,13,0: - Y_1,13 + X_1,4,13,0 + X_1,0,13,0 = 0
 SYNCH_1,14,0: - Y_1,14 + X_1,4,14,0 + X_1,0,14,0 = 0
 SYNCH_1,15,0: - Y_1,15 + X_1,4,15,0 + X_1,0,15,0 = 0
 SYNCH_1,16,0: - Y_1,16 + X_1,0,16,0 = 0
 SYNCH_1,17,0: - Y_1,17 + X_1,0,17,0 = 0
 SYNCH_1,18,0: - Y_1,18 + X_1,0,18,0 = 0
 SYNCH_1,19,0: - Y_1,19 + X_1,0,19,0 = 0
 SYNCH_1,20,0: - Y_1,20 + X_1,0,20,0 = 0
 SYNCH_1,21,0: - Y_1,21 + X_1,0,21,0 = 0
 SYNCH_1,22,0: - Y_1,22 + X_1,0,22,0 = 0
 SYNCH_1,23,0: - Y_1,23 + X_1,0,23,0 = 0
 SYNCH_2,2,0: - Y_2,2 + X_2,1,2,0 + X_2,3,2,0 + X_2,4,2,0 + X_2,0,2,0 = 0
 SYNCH_2,3,0: - Y_2,3 + X_2,1,3,0 + X_2,3,3,0 + X_2,4,3,0 + X_2,0,3,0 = 0
 SYNCH_2,4,0: - Y_2,4 + X_2,1,4,0 + X_2,3,4,0 + X_2,4,4,0 + X_2,0,4,0 = 0
 SYNCH_2,5,0: - Y_2,5 + X_2,1,5,0 + X_2,3,5,0 + X_2,4,5,0 + X_2,0,5,0 = 0
 SYNCH_3,11,0: - Y_3,11 + X_3,1,11,0 + X_3,4,11,0 + X_3,0,11,0 = 0
 SYNCH_4,17,0: - Y_4,17 + X_4,1,17,0 + X_4,0,17,0 = 0
 SYNCH_4,18,0: - Y_4,18 + X_4,1,18,0 + X_4,0,18,0 = 0
 SYNCH_4,19,0: - Y_4,19 + X_4,0,19,0 = 0
 SYNCH_4,20,0: - Y_4,20 + X_4,0,20,0 = 0
 CARD_0: FAUX_0 = 2
 EXPLICIT_0,1,0,0: X_0,1,0,0 - BAUX_0,1,0,0 = 0
 EXPLICIT_0,2,0,0: X_0,2,0,0 - BAUX_0,2,0,0 = 0
 EXPLICIT_0,3,0,0: X_0,3,0,0 - BAUX_0,3,0,0 = 0
 EXPLICIT_0,4,0,0: X_0,4,0,0 - BAUX_0,4,0,0 = 0
 EXPLICIT_1,0,5,0: X_1,0,5,0 - BAUX_1,0,5,0 = 0
 EXPLICIT_1,0,6,0: X_1,0,6,0 - BAUX_1,0,6,0 = 0
 EXPLICIT_1,0,7,0: X_1,0,7,0 - BAUX_1,0,7,0 = 0
 EXPLICIT_1,0,8,0: X_1,0,8,0 - BAUX_1,0,8,0 = 0
 EXPLICIT_1,0,9,0: X_1,0,9,0 - BAUX_1,0,9,0 = 0
 EXPLICIT_1,0,10,0: X_1,0,10,0 - BAUX_1,0,10,0 = 0
 EXPLICIT_1,0,11,0: X_1,0,11,0 - BAUX_1,0,11,0 = 0
 EXPLICIT_1,0,12,0: X_1,0,12,0 - BAUX_1,0,12,0 = 0
 EXPLICIT_1,0,13,0: X_1,0,13,0 - BAUX_1,0,13,0 = 0
 EXPLICIT_1,0,14,0: X_1,0,14,0 - BAUX_1,0,14,0 = 0
 EXPLICIT_1,0,15,0: X_1,0,15,0 - BAUX_1,0,15,0 = 0
 EXPLICIT_1,0,16,0: X_1,0,16,0 - BAUX_1,0,16,0 = 0
 EXPLICIT_1,0,17,0: X_1,0,17,0 - BAUX_1,0,17,0 = 0
 EXPLICIT_1,0,18,0: X_1,0,18,0 - BAUX_1,0,18,0 = 0
 EXPLICIT_1,0,19,0: X_1,0,19,0 - BAUX_1,0,19,0 = 0
 EXPLICIT_1,0,20,0: X_1,0,20,0 - BAUX_1,0,20,0 = 0
 EXPLICIT_1,0,21,0: X_1,0,21,0 - BAUX_1,0,21,0 = 0
 EXPLICIT_1,0,22,0: X_1,0,22,0 - BAUX_1,0,22,0 = 0
 EXPLICIT_1,0,23,0: X_1,0,23,0 - BAUX_1,0,23,0 = 0
 EXPLICIT_1,3,5,0: X_1,3,5,0 - BAUX_1,3,5,0 = 0
 EXPLICIT_1,3,6,0: X_1,3,6,0 - BAUX_1,3,6,0 = 0
 EXPLICIT_1,3,7,0: X_1,3,7,0 - BAUX_1,3,7,0 = 0
 EXPLICIT_1,3,8,0: X_1,3,8,0 - BAUX_1,3,8,0 = 0
 EXPLICIT_1,4,5,0: X_1,4,5,0 - BAUX_1,4,5,0 = 0
 EXPLICIT_1,4,6,0: X_1,4,6,0 - BAUX_1,4,6,0 = 0
 EXPLICIT_1,4,7,0: X_1,4,7,0 - BAUX_1,4,7,0 = 0
 EXPLICIT_1,4,8,0: X_1,4,8,0 - BAUX_1,4,8,0 = 0
 EXPLICIT_1,4,9,0: X_1,4,9,0 - BAUX_1,4,9,0 = 0
 EXPLICIT_1,4,10,0: X_1,4,10,0 - BAUX_1,4,10,0 = 0
 EXPLICIT_1,4,11,0: X_1,4,11,0 - BAUX_1,4,11,0 = 0
 EXPLICIT_1,4,12,0: X_1,4,12,0 - BAUX_1,4,12,0 = 0
 EXPLICIT_1,4,13,0: X_1,4,13,0 - BAUX_1,4,13,0 = 0
 EXPLICIT_1,4,14,0: X_1,4,14,0 - BAUX_1,4,14,0 = 0
 EXPLICIT_1,4,15,0: X_1,4,15,0 - BAUX_1,4,15,0 = 0
 EXPLICIT_2,0,2,0: X_2,0,2,0 - BAUX_2,0,2,0 = 0
 EXPLICIT_2,0,3,0: X_2,0,3,0 - BAUX_2,0,3,0 = 0
 EXPLICIT_2,0,4,0: X_2,0,4,0 - BAUX_2,0,4,0 = 0
 EXPLICIT_2,0,5,0: X_2,0,5,0 - BAUX_2,0,5,0 = 0
 EXPLICIT_2,1,2,0: X_2,1,2,0 - BAUX_2,1,2,0 = 0
 EXPLICIT_2,1,3,0: X_2,1,3,0 - BAUX_2,1,3,0 = 0
 EXPLICIT_2,1,4,0: X_2,1,4,0 - BAUX_2,1,4,0 = 0
 EXPLICIT_2,1,5,0: X_2,1,5,0 - BAUX_2,1,5,0 = 0
 EXPLICIT_2,3,2,0: X_2,3,2,0 - BAUX_2,3,2,0 = 0
 EXPLICIT_2,3,3,0: X_2,3,3,0 - BAUX_2,3,3,0 = 0
 EXPLICIT_2,3,4,0: X_2,3,4,0 - BAUX_2,3,4,0 = 0
 EXPLICIT_2,3,5,0: X_2,3,5,0 - BAUX_2,3,5,0 = 0
 EXPLICIT_2,4,2,0: X_2,4,2,0 - BAUX_2,4,2,0 = 0
 EXPLICIT_2,4,3,0: X_2,4,3,0 - BAUX_2,4,3,0 = 0
 EXPLICIT_2,4,4,0: X_2,4,4,0 - BAUX_2,4,4,0 = 0
 EXPLICIT_2,4,5,0: X_2,4,5,0 - BAUX_2,4,5,0 = 0
 EXPLICIT_3,0,11,0: X_3,0,11,0 - BAUX_3,0,11,0 = 0
 EXPLICIT_3,1,11,0: X_3,1,11,0 - BAUX_3,1,11,0 = 0
 EXPLICIT_3,4,11,0: X_3,4,11,0 - BAUX_3,4,11,0 = 0
 EXPLICIT_4,0,17,0: X_4,0,17,0 - BAUX_4,0,17,0 = 0
 EXPLICIT_4,0,18,0: X_4,0,18,0 - BAUX_4,0,18,0 = 0
 EXPLICIT_4,0,19,0: X_4,0,19,0 - BAUX_4,0,19,0 = 0
 EXPLICIT_4,0,20,0: X_4,0,20,0 - BAUX_4,0,20,0 = 0
 EXPLICIT_4,1,17,0: X_4,1,17,0 - BAUX_4,1,17,0 = 0
 EXPLICIT_4,1,18,0: X_4,1,18,0 - BAUX_4,1,18,0 = 0
Bounds
 Y_1,5 <= 1
 Y_1,6 <= 1
 Y_1,7 <= 1
 Y_1,8 <= 1
 Y_1,9 <= 1
 Y_1,10 <= 1
 Y_1,11 <= 1
 Y_1,12 <= 1
 Y_1,13 <= 1
 Y_1,14 <= 1
 Y_1,15 <= 1
 Y_1,16 <= 1
 Y_1,17 <= 1
 Y_1,18 <= 1
 Y_1,19 <= 1
 Y_1,20 <= 1
 Y_1,21 <= 1
 Y_1,22 <= 1
 Y_1,23 <= 1
 Y_2,2 <= 1
 Y_2,3 <= 1
 Y_2,4 <= 1
 Y_2,5 <= 1
 Y_3,11 <= 1
 Y_4,17 <= 1
 Y_4,18 <= 1
 Y_4,19 <= 1
 Y_4,20 <= 1
 X_0,1,0,0 <= 1
 BAUX_0,1,0,0 <= 1
 X_0,2,0,0 <= 1
 BAUX_0,2,0,0 <= 1
 X_0,3,0,0 <= 1
 BAUX_0,3,0,0 <= 1
 X_0,4,0,0 <= 1
 BAUX_0,4,0,0 <= 1
 X_2,1,2,0 <= 1
 BAUX_2,1,2,0 <= 1
 X_2,3,2,0 <= 1
 BAUX_2,3,2,0 <= 1
 X_2,4,2,0 <= 1
 BAUX_2,4,2,0 <= 1
 X_2,0,2,0 <= 1
 BAUX_2,0,2,0 <= 1
 X_1,3,8,0 <= 1
 BAUX_1,3,8,0 <= 1
 X_1,4,8,0 <= 1
 BAUX_1,4,8,0 <= 1
 X_1,0,8,0 <= 1
 BAUX_1,0,8,0 <= 1
 X_2,1,3,0 <= 1
 BAUX_2,1,3,0 <= 1
 X_2,3,3,0 <= 1
 BAUX_2,3,3,0 <= 1
 X_2,4,3,0 <= 1
 BAUX_2,4,3,0 <= 1
 X_2,0,3,0 <= 1
 BAUX_2,0,3,0 <= 1
 X_3,1,11,0 <= 1
 BAUX_3,1,11,0 <= 1
 X_3,4,11,0 <= 1
 BAUX_3,4,11,0 <= 1
 X_3,0,11,0 <= 1
 BAUX_3,0,11,0 <= 1
 X_1,4,9,0 <= 1
 BAUX_1,4,9,0 <= 1
 X_1,0,9,0 <= 1
 BAUX_1,0,9,0 <= 1
 X_2,1,4,0 <= 1
 BAUX_2,1,4,0 <= 1
 X_2,3,4,0 <= 1
 BAUX_2,3,4,0 <= 1
 X_2,4,4,0 <= 1
 BAUX_2,4,4,0 <= 1
 X_2,0,4,0 <= 1
 BAUX_2,0,4,0 <= 1
 X_1,3,5,0 <= 1
 BAUX_1,3,5,0 <= 1
 X_1,4,5,0 <= 1
 BAUX_1,4,5,0 <= 1
 X_1,0,5,0 <= 1
 BAUX_1,0,5,0 <= 1
 X_1,4,14,0 <= 1
 BAUX_1,4,14,0 <= 1
 X_1,0,14,0 <= 1
 BAUX_1,0,14,0 <= 1
 X_1,4,10,0 <= 1
 BAUX_1,4,10,0 <= 1
 X_1,0,10,0 <= 1
 BAUX_1,0,10,0 <= 1
 X_2,1,5,0 <= 1
 BAUX_2,1,5,0 <= 1
 X_2,3,5,0 <= 1
 BAUX_2,3,5,0 <= 1
 X_2,4,5,0 <= 1
 BAUX_2,4,5,0 <= 1
 X_2,0,5,0 <= 1
 BAUX_2,0,5,0 <= 1
 X_1,3,6,0 <= 1
 BAUX_1,3,6,0 <= 1
 X_1,4,6,0 <= 1
 BAUX_1,4,6,0 <= 1
 X_1,0,6,0 <= 1
 BAUX_1,0,6,0 <= 1
 X_4,0,19,0 <= 1
 BAUX_4,0,19,0 <= 1
 X_1,4,15,0 <= 1
 BAUX_1,4,15,0 <= 1
 X_1,0,15,0 <= 1
 BAUX_1,0,15,0 <= 1
 X_1,4,11,0 <= 1
 BAUX_1,4,11,0 <= 1
 X_1,0,11,0 <= 1
 BAUX_1,0,11,0 <= 1
 X_1,3,7,0 <= 1
 BAUX_1,3,7,0 <= 1
 X_1,4,7,0 <= 1
 BAUX_1,4,7,0 <= 1
 X_1,0,7,0 <= 1
 BAUX_1,0,7,0 <= 1
 X_4,0,20,0 <= 1
 BAUX_4,0,20,0 <= 1
 X_1,0,16,0 <= 1
 BAUX_1,0,16,0 <= 1
 X_4,1,17,0 <= 1
 BAUX_4,1,17,0 <= 1
 X_4,0,17,0 <= 1
 BAUX_4,0,17,0 <= 1
 X_1,4,12,0 <= 1
 BAUX_1,4,12,0 <= 1
 X_1,0,12,0 <= 1
 BAUX_1,0,12,0 <= 1
 X_1,0,17,0 <= 1
 BAUX_1,0,17,0 <= 1
 X_1,0,22,0 <= 1
 BAUX_1,0,22,0 <= 1
 X_4,1,18,0 <= 1
 BAUX_4,1,18,0 <= 1
 X_4,0,18,0 <= 1
 BAUX_4,0,18,0 <= 1
 X_1,4,13,0 <= 1
 BAUX_1,4,13,0 <= 1
 X_1,0,13,0 <= 1
 BAUX_1,0,13,0 <= 1
 X_1,0,18,0 <= 1
 BAUX_1,0,18,0 <= 1
 X_1,0,23,0 <= 1
 BAUX_1,0,23,0 <= 1
 X_1,0,19,0 <= 1
 BAUX_1,0,19,0 <= 1
 X_1,0,20,0 <= 1
 BAUX_1,0,20,0 <= 1
 X_1,0,21,0 <= 1
 BAUX_1,0,21,0 <= 1
 FAUX_0 <= 2
End
